benchmarks/bfuzz0/3844643004311017370117848282911088.smt2
(set-logic QF_FP)
(declare-const x0 (_ FloatingPoint 8 24))
(declare-const x1 (_ FloatingPoint 8 24))
(declare-const x2 (_ FloatingPoint 8 24))
(assert (fp.gt (fp.sub RNE x2 x0) (fp.mul RNE x0 x0)))
(assert (fp.geq (fp.div RNE x1 x1) (fp.div RNE x1 x1)))
(assert (fp.lt (fp.add RNE x2 x2) (fp.mul RNE x2 x1)))
(assert (fp.gt (fp.neg x1) (fp.div RNE x0 x0)))
(check-sat)
