db/data/3844643004311017370117848282911088.z3.out
sat
-------------------
8.233148195
